LAMMPS (3 Mar 2020)
# sample surface deposition script for atoms

units		lj
atom_style      atomic
boundary        p p f

lattice		fcc 1.0
Lattice spacing in x,y,z = 1.5874 1.5874 1.5874
region          box block 0 5 0 5 0 10
create_box      2 box
Created orthogonal box = (0 0 0) to (7.93701 7.93701 15.874)
  1 by 1 by 1 MPI processor grid

region		substrate block INF INF INF INF INF 3
create_atoms	1 region substrate
Created 350 atoms
  create_atoms CPU = 0.000352756 secs

pair_style	lj/cut 2.5
pair_coeff	* * 1.0 1.0
pair_coeff	1 2 1.0 1.0 5.0
mass		* 1.0

neigh_modify	delay 0

group		addatoms type 2
0 atoms in group addatoms
region          mobile block 0 5 0 5 2 INF
group		mobile region mobile
150 atoms in group mobile

# modelling and compute

compute		add addatoms temp
compute_modify	add dynamic/dof yes extra/dof 0

fix		1 addatoms nve
fix		2 mobile langevin 1.0 1.0 0.1 587283
fix		3 mobile nve

region          slab block 0 5 0 5 8 9
fix		4 addatoms deposit 100 2 100 12345 region slab near 1.0                 vz -1.0 -1.0
fix		5 addatoms wall/reflect zhi EDGE

thermo_style	custom step atoms temp epair etotal press
thermo          100
thermo_modify	temp add
WARNING: Temperature for thermo pressure is not for group all (src/thermo.cpp:485)

dump		1 all atom 50 dump.deposit.atom

#dump		2 all image 50 image.*.jpg type type #		axes yes 0.8 0.02 view 80 -30
#dump_modify	2 pad 5

#dump		3 all movie 50 movie.mpg type type #		axes yes 0.8 0.02 view 80 -30
#dump_modify	3 pad 5

run             10000
Neighbor list info ...
  update every 1 steps, delay 0 steps, check yes
  max neighbors/atom: 2000, page size: 100000
  master list distance cutoff = 5.3
  ghost atom cutoff = 5.3
  binsize = 2.65, bins = 3 3 6
  1 neighbor lists, perpetual/occasional/extra = 1 0 0
  (1) pair lj/cut, perpetual
      attributes: half, newton on
      pair build: half/bin/atomonly/newton
      stencil: half/bin/3d/newton
      bin: standard
Per MPI rank memory allocation (min/avg/max) = 4.14 | 4.14 | 4.14 Mbytes
Step Atoms Temp E_pair TotEng Press 
       0      350            0   -6.9215833   -6.9215833   -1.0052629 
     100      351   0.83994737   -6.3459678   -6.3423783  -0.12047746 
     200      352   0.83994737   -6.2377119   -6.2305533   -0.3420432 
     300      353   0.83994737   -6.1024943   -6.0917868  -0.40601913 
     400      354   0.83994737   -6.0282916   -6.0140552  -0.46031271 
     500      355   0.84002694   -5.9198951   -5.9021481  -0.44551373 
     600      356   0.84114287   -5.8669188   -5.8456539  -0.45278002 
     700      357   0.84627771   -5.8048786    -5.779988  -0.42299979 
     800      358   0.87815961   -5.7667179   -5.7372824  -0.48213707 
     900      359     1.159442   -5.7461761   -5.7025759  -0.53381656 
    1000      360   0.96427807    -5.716523   -5.6763448  -0.52570341 
    1100      361   0.93523441   -5.6751198   -5.6323736   -0.5482069 
    1200      362    1.0446715   -5.6266386   -5.5746936  -0.54962025 
    1300      363   0.74380252   -5.5870886   -5.5471323  -0.62351957 
    1400      364    1.3312803   -5.5852911   -5.5084865  -0.49558724 
    1500      365     1.155786   -5.5099765   -5.4387295  -0.35451412 
    1600      366    1.1433855   -5.5061063   -5.4311302  -0.39930455 
    1700      367    1.3394021   -5.5675841   -5.4745193  -0.55229199 
    1800      368    1.2460223   -5.5355825   -5.4441624  -0.51566489 
    1900      369    1.6051152   -5.5492884   -5.4253161  -0.39751007 
    2000      370   0.82031634   -5.5364122      -5.4699  -0.39964146 
    2100      371   0.94805164   -5.5621803   -5.4816854  -0.52102778 
    2200      372    1.0055368   -5.4792905   -5.3900896  -0.52775061 
    2300      373   0.97472136   -5.5217877   -5.4316325  -0.56827812 
    2400      374    1.2171905    -5.483876   -5.3667133  -0.53275844 
    2500      375   0.99527082   -5.4381741    -5.338647  -0.57397032 
    2600      376    1.0984247   -5.4462992   -5.3323668  -0.71249661 
    2700      377    1.0479713   -5.3995791   -5.2869986  -0.64627812 
    2800      378    1.0444138   -5.3539902   -5.2379443  -0.60161729 
    2900      379    1.1744666   -5.3372417   -5.2024414  -0.55449817 
    3000      380   0.97984018   -5.3351439   -5.2191102  -0.69923874 
    3100      381    1.1554318   -5.2865992   -5.1455819  -0.51498435 
    3200      382   0.94415246    -5.329694    -5.211057  -0.64556775 
    3300      383   0.95846731   -5.2721703   -5.1482953  -0.52163136 
    3400      384   0.88032375   -5.2872326   -5.1703146  -0.53695622 
    3500      385    1.0720873   -5.2881417    -5.141948  -0.57625791 
    3600      386    1.2657977   -5.2453235    -5.068243  -0.57609815 
    3700      387    1.0640831    -5.253875   -5.1012739   -0.5898201 
    3800      388    1.1648792   -5.2169424   -5.0458132  -0.48632122 
    3900      389   0.99467439   -5.1934158   -5.0438311  -0.53678113 
    4000      390   0.87979754   -5.2314968   -5.0961433  -0.60525824 
    4100      391   0.93075741   -5.1772985   -5.0309006  -0.58495382 
    4200      392     1.070101   -5.2258574   -5.0538769  -0.70871975 
    4300      393    1.2069057   -5.2179104   -5.0198305  -0.56414598 
    4400      394     1.052622   -5.2142604   -5.0379328  -0.53464205 
    4500      395    1.2931309   -5.2420081   -5.0210301  -0.56331681 
    4600      396    1.3231166   -5.2314129   -5.0008699  -0.59774925 
    4700      397    1.2544808   -5.2275378   -5.0047648    -0.625746 
    4800      398   0.96421835   -5.2351097   -5.0606782  -0.60386634 
    4900      399    1.1364989   -5.1964105   -4.9870554  -0.57832179 
    5000      400    1.2128306   -5.2300731   -5.0026674   -0.6000795 
    5100      401    1.1113207   -5.2341396   -5.0221295  -0.59072351 
    5200      402    1.1851433    -5.295693   -5.0657398  -0.66386252 
    5300      403   0.94398897   -5.2365412     -5.05032  -0.53762407 
    5400      404    1.1995664   -5.2327375   -4.9922304  -0.58367422 
    5500      405    1.1379567   -5.2086756   -4.9768696  -0.65725903 
    5600      406    1.0287504   -5.1960711   -4.9832261  -0.68303703 
    5700      407   0.94995683   -5.1975558   -4.9979949  -0.64775934 
    5800      408   0.95209732   -5.2055581   -5.0025373  -0.59432606 
    5900      409   0.93217976   -5.2177277   -5.0160213  -0.59961859 
    6000      410     0.990663   -5.2160394   -4.9985768  -0.53248174 
    6100      411    1.0736322   -5.2438627   -5.0048424   -0.6304714 
    6200      412    1.0641924   -5.2810818   -5.0408636  -0.62213866 
    6300      413   0.91568421   -5.2892949   -5.0797739  -0.75557257 
    6400      414   0.97820728   -5.2291778   -5.0023471   -0.5939341 
    6500      415   0.94337873   -5.2413106   -5.0196734  -0.61851714 
    6600      416    1.1444386   -5.2561613   -4.9838069  -0.58353973 
    6700      417    1.1358037   -5.2629443   -4.9892075  -0.50328612 
    6800      418    1.1147076   -5.3035652   -5.0315552  -0.65725725 
    6900      419   0.95498146   -5.3155485   -5.0796521  -0.50635667 
    7000      420    1.1166879   -5.2808019     -5.00163  -0.45028299 
    7100      421   0.91630145   -5.3103021   -5.0785061  -0.56142344 
    7200      422   0.97477739   -5.3043133   -5.0548442  -0.64891364 
    7300      423   0.95103037   -5.3264623   -5.0802736  -0.64168934 
    7400      424    1.0293449   -5.3258186   -5.0563439  -0.42459191 
    7500      425    1.1524174   -5.2958519   -4.9908003  -0.48515589 
    7600      426     1.206965   -5.2891088   -4.9661182  -0.59878307 
    7700      427    1.0426374   -5.2600748   -4.9780499  -0.58020857 
    7800      428   0.91818828   -5.2445871    -4.993587  -0.51979674 
    7900      429    1.2278683   -5.2441332   -4.9049667  -0.48509121 
    8000      430    1.0483288   -5.2372918   -4.9447349  -0.48482627 
    8100      431    0.9487585   -5.2998551   -5.0323977   -0.6739726 
    8200      432   0.98972454   -5.2495256    -4.967729  -0.59326544 
    8300      433    1.0071652    -5.205315   -4.9157259  -0.40878554 
    8400      434    1.1230412   -5.2261964   -4.9001522  -0.53080513 
    8500      435    1.0796346     -5.24401   -4.9275654  -0.58387103 
    8600      436    1.0574355   -5.1888363   -4.8759713  -0.61697272 
    8700      437    1.1596539   -5.2361555   -4.8898515  -0.61816896 
    8800      438     1.062749   -5.2231909   -4.9029104  -0.67173942 
    8900      439    1.0630151   -5.2142735   -4.8910104  -0.64975648 
    9000      440    1.0862949   -5.1565548   -4.8232598  -0.49806319 
    9100      441    1.1256735   -5.1702497   -4.8218269  -0.48807428 
    9200      442   0.91493717   -5.1409722   -4.8553131  -0.53064642 
    9300      443    1.0781232    -5.147133   -4.8076337  -0.65239375 
    9400      444    1.0873533   -5.1842553   -4.8389471  -0.63966345 
    9500      445    1.0760659    -5.099335   -4.7547521  -0.55283895 
    9600      446    1.1204049   -5.1459272   -4.7841821  -0.70614817 
    9700      447    0.9654718   -5.0655046   -4.7512403  -0.65723461 
    9800      448   0.96889057   -5.0423194   -4.7244022  -0.58200493 
    9900      449    1.1206578   -5.1079995   -4.7373588  -0.62021823 
   10000      450    1.0158535   -5.1338453   -4.7952274  -0.65290289 
Loop time of 5.88793 on 1 procs for 10000 steps with 450 atoms

Performance: 733704.843 tau/day, 1698.391 timesteps/s
99.8% CPU use with 1 MPI tasks x no OpenMP threads

MPI task timing breakdown:
Section |  min time  |  avg time  |  max time  |%varavg| %total
---------------------------------------------------------------
Pair    | 3.2932     | 3.2932     | 3.2932     |   0.0 | 55.93
Neigh   | 2.1299     | 2.1299     | 2.1299     |   0.0 | 36.17
Comm    | 0.13069    | 0.13069    | 0.13069    |   0.0 |  2.22
Output  | 0.12047    | 0.12047    | 0.12047    |   0.0 |  2.05
Modify  | 0.17844    | 0.17844    | 0.17844    |   0.0 |  3.03
Other   |            | 0.03522    |            |       |  0.60

Nlocal:    450 ave 450 max 450 min
Histogram: 1 0 0 0 0 0 0 0 0 0
Nghost:    1968 ave 1968 max 1968 min
Histogram: 1 0 0 0 0 0 0 0 0 0
Neighs:    29034 ave 29034 max 29034 min
Histogram: 1 0 0 0 0 0 0 0 0 0

Total # of neighbors = 29034
Ave neighs/atom = 64.52
Neighbor list builds = 1174
Dangerous builds = 0
Total wall time: 0:00:05
